RLW06
Position Depot: Center
Horizon for Depot: Large
Position of customers: Random
Distribution of the demand: Medium
Width of time windows: Wide
Distribution of the service: Small

VEHICLE 
NUMBER 	 CAPACITY 
 10 	 	 158 
 
CUSTOMER
CUST NO. 	 XCOORD.  	 YCOORD. 	 DEMAND 	 READY TIME 	 DUE DATE 	 SERVICE TIME 
 0 	 	 500 	 	 500 	 	 0 	 	 0 	 	 3649 	 	 0 
  1 	 	 146 	 	 441 	 	 6 	 	 2876 	 	 3272 	 	 76 
  2 	 	 446 	 	 376 	 	 63 	 	 684 	 	 917 	 	 59 
  3 	 	 243 	 	 245 	 	 7 	 	 1657 	 	 2082 	 	 86 
  4 	 	 97 	 	 55 	 	 9 	 	 438 	 	 660 	 	 77 
  5 	 	 874 	 	 804 	 	 3 	 	 3329 	 	 3649 	 	 94 
  6 	 	 790 	 	 676 	 	 7 	 	 3002 	 	 3377 	 	 87 
  7 	 	 765 	 	 48 	 	 3 	 	 2587 	 	 3054 	 	 73 
  8 	 	 598 	 	 61 	 	 4 	 	 2471 	 	 2734 	 	 77 
  9 	 	 973 	 	 152 	 	 73 	 	 393 	 	 670 	 	 68 
  10 	 	 25 	 	 483 	 	 8 	 	 102 	 	 522 	 	 55 
  11 	 	 481 	 	 557 	 	 2 	 	 289 	 	 764 	 	 93 
  12 	 	 723 	 	 966 	 	 10 	 	 2026 	 	 2435 	 	 65 
  13 	 	 933 	 	 535 	 	 6 	 	 1663 	 	 1922 	 	 54 
  14 	 	 215 	 	 606 	 	 6 	 	 302 	 	 551 	 	 72 
  15 	 	 108 	 	 904 	 	 57 	 	 2702 	 	 2946 	 	 50 
  16 	 	 524 	 	 442 	 	 65 	 	 195 	 	 552 	 	 81 
  17 	 	 626 	 	 63 	 	 9 	 	 1021 	 	 1421 	 	 90 
  18 	 	 41 	 	 686 	 	 5 	 	 2319 	 	 2763 	 	 78 
  19 	 	 224 	 	 275 	 	 70 	 	 2950 	 	 3394 	 	 78 
  20 	 	 546 	 	 56 	 	 3 	 	 2840 	 	 3264 	 	 79 
  21 	 	 302 	 	 599 	 	 6 	 	 1886 	 	 2289 	 	 98 
  22 	 	 990 	 	 682 	 	 9 	 	 2242 	 	 2645 	 	 80 
  23 	 	 770 	 	 645 	 	 1 	 	 120 	 	 395 	 	 81 
  24 	 	 996 	 	 841 	 	 73 	 	 882 	 	 1240 	 	 100 
  25 	 	 554 	 	 900 	 	 2 	 	 1920 	 	 2190 	 	 79 
  26 	 	 871 	 	 38 	 	 10 	 	 1095 	 	 1572 	 	 73 
  27 	 	 128 	 	 728 	 	 84 	 	 656 	 	 993 	 	 89 
  28 	 	 829 	 	 66 	 	 5 	 	 263 	 	 599 	 	 96 
  29 	 	 984 	 	 513 	 	 10 	 	 1515 	 	 1772 	 	 56 
  30 	 	 701 	 	 329 	 	 10 	 	 3220 	 	 3649 	 	 55 
  31 	 	 625 	 	 510 	 	 10 	 	 3427 	 	 3649 	 	 62 
  32 	 	 173 	 	 56 	 	 1 	 	 238 	 	 722 	 	 83 
  33 	 	 312 	 	 771 	 	 3 	 	 2046 	 	 2322 	 	 64 
  34 	 	 886 	 	 222 	 	 6 	 	 2582 	 	 3070 	 	 77 
  35 	 	 273 	 	 629 	 	 10 	 	 3163 	 	 3490 	 	 54 
  36 	 	 876 	 	 610 	 	 1 	 	 1596 	 	 1940 	 	 80 
  37 	 	 432 	 	 446 	 	 54 	 	 603 	 	 912 	 	 99 
  38 	 	 695 	 	 34 	 	 98 	 	 1552 	 	 1964 	 	 72 
  39 	 	 963 	 	 363 	 	 3 	 	 574 	 	 889 	 	 64 
  40 	 	 829 	 	 964 	 	 2 	 	 3221 	 	 3649 	 	 70 
  41 	 	 833 	 	 222 	 	 3 	 	 2597 	 	 3063 	 	 74 
  42 	 	 109 	 	 489 	 	 10 	 	 -11 	 	 430 	 	 69 
  43 	 	 268 	 	 795 	 	 5 	 	 720 	 	 987 	 	 94 
  44 	 	 651 	 	 389 	 	 7 	 	 1635 	 	 2109 	 	 51 
  45 	 	 134 	 	 237 	 	 91 	 	 229 	 	 580 	 	 94 
  46 	 	 639 	 	 446 	 	 6 	 	 238 	 	 565 	 	 65 
  47 	 	 503 	 	 588 	 	 8 	 	 1257 	 	 1678 	 	 75 
  48 	 	 566 	 	 995 	 	 1 	 	 2360 	 	 2764 	 	 59 
  49 	 	 435 	 	 130 	 	 7 	 	 2314 	 	 2734 	 	 90 
  50 	 	 97 	 	 206 	 	 8 	 	 2230 	 	 2646 	 	 66 
  51 	 	 520 	 	 849 	 	 6 	 	 3066 	 	 3344 	 	 85 
  52 	 	 731 	 	 550 	 	 1 	 	 2175 	 	 2424 	 	 99 
  53 	 	 379 	 	 465 	 	 2 	 	 1027 	 	 1298 	 	 55 
  54 	 	 416 	 	 722 	 	 51 	 	 1712 	 	 2210 	 	 96 
  55 	 	 133 	 	 793 	 	 7 	 	 1855 	 	 2174 	 	 82 
  56 	 	 28 	 	 385 	 	 76 	 	 2338 	 	 2581 	 	 65 
  57 	 	 688 	 	 40 	 	 55 	 	 1092 	 	 1312 	 	 72 
  58 	 	 787 	 	 43 	 	 1 	 	 2215 	 	 2572 	 	 72 
  59 	 	 315 	 	 92 	 	 10 	 	 1280 	 	 1647 	 	 99 
  60 	 	 175 	 	 909 	 	 9 	 	 839 	 	 1206 	 	 88 
  61 	 	 238 	 	 254 	 	 4 	 	 1094 	 	 1450 	 	 84 
  62 	 	 330 	 	 731 	 	 1 	 	 2466 	 	 2912 	 	 66 
  63 	 	 894 	 	 673 	 	 3 	 	 848 	 	 1130 	 	 55 
  64 	 	 265 	 	 408 	 	 3 	 	 3094 	 	 3577 	 	 100 
  65 	 	 875 	 	 858 	 	 6 	 	 1427 	 	 1735 	 	 60 
  66 	 	 39 	 	 456 	 	 2 	 	 2689 	 	 3048 	 	 99 
  67 	 	 225 	 	 738 	 	 9 	 	 3038 	 	 3466 	 	 71 
  68 	 	 85 	 	 70 	 	 4 	 	 256 	 	 724 	 	 79 
  69 	 	 731 	 	 847 	 	 1 	 	 2318 	 	 2603 	 	 79 
  70 	 	 443 	 	 553 	 	 1 	 	 817 	 	 1174 	 	 63 
  71 	 	 531 	 	 621 	 	 5 	 	 892 	 	 1270 	 	 67 
  72 	 	 294 	 	 48 	 	 1 	 	 2354 	 	 2779 	 	 52 
  73 	 	 211 	 	 78 	 	 5 	 	 305 	 	 631 	 	 93 
  74 	 	 890 	 	 113 	 	 4 	 	 2471 	 	 2740 	 	 89 
  75 	 	 610 	 	 702 	 	 51 	 	 1696 	 	 1910 	 	 85 
  76 	 	 232 	 	 850 	 	 9 	 	 170 	 	 484 	 	 58 
  77 	 	 64 	 	 16 	 	 70 	 	 2240 	 	 2483 	 	 83 
  78 	 	 552 	 	 267 	 	 1 	 	 2055 	 	 2398 	 	 72 
  79 	 	 265 	 	 555 	 	 7 	 	 1936 	 	 2406 	 	 84 
  80 	 	 476 	 	 285 	 	 8 	 	 2104 	 	 2505 	 	 58 
  81 	 	 923 	 	 632 	 	 1 	 	 2005 	 	 2231 	 	 70 
  82 	 	 148 	 	 224 	 	 1 	 	 3240 	 	 3649 	 	 96 
  83 	 	 854 	 	 607 	 	 9 	 	 3416 	 	 3649 	 	 94 
  84 	 	 35 	 	 134 	 	 9 	 	 1356 	 	 1834 	 	 67 
  85 	 	 606 	 	 45 	 	 5 	 	 2696 	 	 3090 	 	 69 
  86 	 	 931 	 	 530 	 	 10 	 	 943 	 	 1240 	 	 84 
  87 	 	 533 	 	 758 	 	 3 	 	 818 	 	 1063 	 	 63 
  88 	 	 491 	 	 168 	 	 7 	 	 3305 	 	 3649 	 	 50 
  89 	 	 154 	 	 820 	 	 1 	 	 2650 	 	 3150 	 	 77 
  90 	 	 486 	 	 978 	 	 4 	 	 2099 	 	 2538 	 	 92 
  91 	 	 957 	 	 110 	 	 92 	 	 1501 	 	 1815 	 	 54 
  92 	 	 130 	 	 346 	 	 8 	 	 1904 	 	 2292 	 	 77 
  93 	 	 836 	 	 878 	 	 8 	 	 861 	 	 1267 	 	 72 
  94 	 	 395 	 	 821 	 	 7 	 	 2415 	 	 2669 	 	 61 
  95 	 	 703 	 	 888 	 	 6 	 	 268 	 	 481 	 	 76 
  96 	 	 896 	 	 600 	 	 8 	 	 291 	 	 610 	 	 79 
  97 	 	 359 	 	 524 	 	 6 	 	 2663 	 	 2881 	 	 67 
  98 	 	 862 	 	 603 	 	 10 	 	 3271 	 	 3642 	 	 58 
  99 	 	 585 	 	 171 	 	 5 	 	 2719 	 	 3145 	 	 96 
  100 	 	 249 	 	 501 	 	 1 	 	 1888 	 	 2218 	 	 57 
 